* #variable= 1037 #constraint= 1415 
+1 x25 -1 x169 = 0 ;
+1 x26 -1 x171 = 0 ;
+1 x27 -1 x174 = 0 ;
+1 x28 -1 x178 = 0 ;
+1 x29 -1 x183 = 0 ;
+1 x30 -1 x189 = 0 ;
+1 x31 -1 x196 = 0 ;
+1 x32 -1 x204 = 0 ;
+1 x33 -1 x213 = 0 ;
+1 x34 -1 x223 = 0 ;
+1 x35 -1 x234 = 0 ;
+1 x36 -1 x246 = 0 ;
+1 x37 -1 x170 = 0 ;
+1 x38 -1 x173 = 0 ;
+1 x39 -1 x177 = 0 ;
+1 x40 -1 x182 = 0 ;
+1 x41 -1 x188 = 0 ;
+1 x42 -1 x195 = 0 ;
+1 x43 -1 x203 = 0 ;
+1 x44 -1 x212 = 0 ;
+1 x45 -1 x222 = 0 ;
+1 x46 -1 x233 = 0 ;
+1 x47 -1 x245 = 0 ;
+1 x48 -1 x257 = 0 ;
+1 x49 -1 x172 = 0 ;
+1 x50 -1 x176 = 0 ;
+1 x51 -1 x181 = 0 ;
+1 x52 -1 x187 = 0 ;
+1 x53 -1 x194 = 0 ;
+1 x54 -1 x202 = 0 ;
+1 x55 -1 x211 = 0 ;
+1 x56 -1 x221 = 0 ;
+1 x57 -1 x232 = 0 ;
+1 x58 -1 x244 = 0 ;
+1 x59 -1 x256 = 0 ;
+1 x60 -1 x267 = 0 ;
+1 x61 -1 x175 = 0 ;
+1 x62 -1 x180 = 0 ;
+1 x63 -1 x186 = 0 ;
+1 x64 -1 x193 = 0 ;
+1 x65 -1 x201 = 0 ;
+1 x66 -1 x210 = 0 ;
+1 x67 -1 x220 = 0 ;
+1 x68 -1 x231 = 0 ;
+1 x69 -1 x243 = 0 ;
+1 x70 -1 x255 = 0 ;
+1 x71 -1 x266 = 0 ;
+1 x72 -1 x276 = 0 ;
+1 x73 -1 x179 = 0 ;
+1 x74 -1 x185 = 0 ;
+1 x75 -1 x192 = 0 ;
+1 x76 -1 x200 = 0 ;
+1 x77 -1 x209 = 0 ;
+1 x78 -1 x219 = 0 ;
+1 x79 -1 x230 = 0 ;
+1 x80 -1 x242 = 0 ;
+1 x81 -1 x254 = 0 ;
+1 x82 -1 x265 = 0 ;
+1 x83 -1 x275 = 0 ;
+1 x84 -1 x284 = 0 ;
+1 x85 -1 x184 = 0 ;
+1 x86 -1 x191 = 0 ;
+1 x87 -1 x199 = 0 ;
+1 x88 -1 x208 = 0 ;
+1 x89 -1 x218 = 0 ;
+1 x90 -1 x229 = 0 ;
+1 x91 -1 x241 = 0 ;
+1 x92 -1 x253 = 0 ;
+1 x93 -1 x264 = 0 ;
+1 x94 -1 x274 = 0 ;
+1 x95 -1 x283 = 0 ;
+1 x96 -1 x291 = 0 ;
+1 x97 -1 x190 = 0 ;
+1 x98 -1 x198 = 0 ;
+1 x99 -1 x207 = 0 ;
+1 x100 -1 x217 = 0 ;
+1 x101 -1 x228 = 0 ;
+1 x102 -1 x240 = 0 ;
+1 x103 -1 x252 = 0 ;
+1 x104 -1 x263 = 0 ;
+1 x105 -1 x273 = 0 ;
+1 x106 -1 x282 = 0 ;
+1 x107 -1 x290 = 0 ;
+1 x108 -1 x297 = 0 ;
+1 x109 -1 x197 = 0 ;
+1 x110 -1 x206 = 0 ;
+1 x111 -1 x216 = 0 ;
+1 x112 -1 x227 = 0 ;
+1 x113 -1 x239 = 0 ;
+1 x114 -1 x251 = 0 ;
+1 x115 -1 x262 = 0 ;
+1 x116 -1 x272 = 0 ;
+1 x117 -1 x281 = 0 ;
+1 x118 -1 x289 = 0 ;
+1 x119 -1 x296 = 0 ;
+1 x120 -1 x302 = 0 ;
+1 x121 -1 x205 = 0 ;
+1 x122 -1 x215 = 0 ;
+1 x123 -1 x226 = 0 ;
+1 x124 -1 x238 = 0 ;
+1 x125 -1 x250 = 0 ;
+1 x126 -1 x261 = 0 ;
+1 x127 -1 x271 = 0 ;
+1 x128 -1 x280 = 0 ;
+1 x129 -1 x288 = 0 ;
+1 x130 -1 x295 = 0 ;
+1 x131 -1 x301 = 0 ;
+1 x132 -1 x306 = 0 ;
+1 x133 -1 x214 = 0 ;
+1 x134 -1 x225 = 0 ;
+1 x135 -1 x237 = 0 ;
+1 x136 -1 x249 = 0 ;
+1 x137 -1 x260 = 0 ;
+1 x138 -1 x270 = 0 ;
+1 x139 -1 x279 = 0 ;
+1 x140 -1 x287 = 0 ;
+1 x141 -1 x294 = 0 ;
+1 x142 -1 x300 = 0 ;
+1 x143 -1 x305 = 0 ;
+1 x144 -1 x309 = 0 ;
+1 x145 -1 x224 = 0 ;
+1 x146 -1 x236 = 0 ;
+1 x147 -1 x248 = 0 ;
+1 x148 -1 x259 = 0 ;
+1 x149 -1 x269 = 0 ;
+1 x150 -1 x278 = 0 ;
+1 x151 -1 x286 = 0 ;
+1 x152 -1 x293 = 0 ;
+1 x153 -1 x299 = 0 ;
+1 x154 -1 x304 = 0 ;
+1 x155 -1 x308 = 0 ;
+1 x156 -1 x311 = 0 ;
+1 x157 -1 x235 = 0 ;
+1 x158 -1 x247 = 0 ;
+1 x159 -1 x258 = 0 ;
+1 x160 -1 x268 = 0 ;
+1 x161 -1 x277 = 0 ;
+1 x162 -1 x285 = 0 ;
+1 x163 -1 x292 = 0 ;
+1 x164 -1 x298 = 0 ;
+1 x165 -1 x303 = 0 ;
+1 x166 -1 x307 = 0 ;
+1 x167 -1 x310 = 0 ;
+1 x168 -1 x312 = 0 ;
+2 x965 +1 x989 -1 x606 -1 x938 = 0 ;
+2 x966 +1 x990 -1 x607 -1 x965 -1 x939 = 0 ;
+2 x967 +1 x991 -1 x608 -1 x966 -1 x940 = 0 ;
+2 x968 +1 x992 -1 x609 -1 x967 -1 x941 = 0 ;
+2 x969 +1 x993 -1 x610 -1 x968 -1 x942 = 0 ;
+2 x970 +1 x994 -1 x612 -1 x969 -1 x943 = 0 ;
+2 x971 +1 x995 -1 x614 -1 x970 -1 x611 = 0 ;
+2 x972 +1 x996 -1 x616 -1 x971 -1 x613 = 0 ;
+2 x973 +1 x997 -1 x618 -1 x972 -1 x615 = 0 ;
+2 x974 +1 x998 -1 x620 -1 x973 -1 x617 = 0 ;
+2 x975 +1 x999 -1 x622 -1 x974 -1 x619 = 0 ;
+2 x976 +1 x1000 -1 x624 -1 x975 -1 x621 = 0 ;
+2 x977 +1 x1001 -1 x626 -1 x976 -1 x623 = 0 ;
+2 x978 +1 x1002 -1 x628 -1 x977 -1 x625 = 0 ;
+2 x979 +1 x1003 -1 x630 -1 x978 -1 x627 = 0 ;
+2 x980 +1 x1004 -1 x632 -1 x979 -1 x629 = 0 ;
+2 x981 +1 x1005 -1 x634 -1 x980 -1 x631 = 0 ;
+2 x982 +1 x1006 -1 x636 -1 x981 -1 x633 = 0 ;
+2 x983 +1 x1007 -1 x638 -1 x982 -1 x635 = 0 ;
+2 x984 +1 x1008 -1 x640 -1 x983 -1 x637 = 0 ;
+2 x985 +1 x1009 -1 x642 -1 x984 -1 x639 = 0 ;
+2 x986 +1 x1010 -1 x644 -1 x985 -1 x641 = 0 ;
+2 x987 +1 x1011 -1 x646 -1 x986 -1 x643 = 0 ;
+2 x988 +1 x1012 -1 x648 -1 x987 -1 x645 = 0 ;
+1 x988 -1 x1013 = 0 ;
-1 x25 +1 x1 >= 0 ;
-1 x25 +1 x13 >= 0 ;
+1 x25 -1 x1 -1 x13 >= -1 ;
+1 x794 -1 x25 = 0 ;
+1 x794 -1 x1014 = 0 ;
+1 x938 = 0 ;
-1 x169 +1 x1 >= 0 ;
-1 x169 +1 x13 >= 0 ;
+1 x169 -1 x1 -1 x13 >= -1 ;
+1 x169 -1 x313 = 0 ;
+1 x313 -1 x417 = 0 ;
+1 x417 -1 x495 = 0 ;
+1 x495 -1 x556 = 0 ;
+1 x556 -1 x606 = 0 ;
+1 x1014 -1 x989 +2 x1015 -2 x990 +4 x1016 -4 x991 +8 x1017 -8 x992 +16 x1018 -16 x993 +32 x1019 -32 x994 +64 x1020 -64 x995 +128 x1021 -128 x996 +256 x1022 -256 x997 +512 x1023 -512 x998 +1024 x1024 -1024 x999 +2048 x1025 -2048 x1000 +4096 x1026 -4096 x1001 +8192 x1027 -8192 x1002 +16384 x1028 -16384 x1003 +32768 x1029 -32768 x1004 +65536 x1030 -65536 x1005 +131072 x1031 -131072 x1006 +262144 x1032 -262144 x1007 +524288 x1033 -524288 x1008 +1048576 x1034 -1048576 x1009 +2097152 x1035 -2097152 x1010 +4194304 x1036 -4194304 x1011 +8388608 x1037 -8388608 x1012 >= 1 ;
-1 x37 +1 x2 >= 0 ;
-1 x37 +1 x13 >= 0 ;
+1 x37 -1 x2 -1 x13 >= -1 ;
-1 x26 +1 x1 >= 0 ;
-1 x26 +1 x14 >= 0 ;
+1 x26 -1 x1 -1 x14 >= -1 ;
+1 x806 -1 x37 = 0 ;
+2 x651 +1 x795 -1 x26 -1 x806 = 0 ;
+1 x795 -1 x1015 = 0 ;
+1 x939 = 0 ;
-1 x171 +1 x1 >= 0 ;
-1 x171 +1 x14 >= 0 ;
+1 x171 -1 x1 -1 x14 >= -1 ;
-1 x170 +1 x2 >= 0 ;
-1 x170 +1 x13 >= 0 ;
+1 x170 -1 x2 -1 x13 >= -1 ;
+2 x314 +1 x315 -1 x171 -1 x170 = 0 ;
+1 x315 -1 x418 = 0 ;
+1 x418 -1 x496 = 0 ;
+1 x496 -1 x557 = 0 ;
+1 x557 -1 x607 = 0 ;
-1 x49 +1 x3 >= 0 ;
-1 x49 +1 x13 >= 0 ;
+1 x49 -1 x3 -1 x13 >= -1 ;
-1 x38 +1 x2 >= 0 ;
-1 x38 +1 x14 >= 0 ;
+1 x38 -1 x2 -1 x14 >= -1 ;
-1 x27 +1 x1 >= 0 ;
-1 x27 +1 x15 >= 0 ;
+1 x27 -1 x1 -1 x15 >= -1 ;
+1 x818 -1 x49 = 0 ;
+2 x663 +1 x807 -1 x38 -1 x651 -1 x818 = 0 ;
+2 x652 +1 x796 -1 x27 -1 x807 = 0 ;
+1 x796 -1 x1016 = 0 ;
+1 x940 = 0 ;
-1 x174 +1 x1 >= 0 ;
-1 x174 +1 x15 >= 0 ;
+1 x174 -1 x1 -1 x15 >= -1 ;
-1 x173 +1 x2 >= 0 ;
-1 x173 +1 x14 >= 0 ;
+1 x173 -1 x2 -1 x14 >= -1 ;
-1 x172 +1 x3 >= 0 ;
-1 x172 +1 x13 >= 0 ;
+1 x172 -1 x3 -1 x13 >= -1 ;
+2 x316 +1 x317 -1 x174 -1 x172 -1 x173 = 0 ;
+2 x419 +1 x420 -1 x314 -1 x317 = 0 ;
+1 x420 -1 x497 = 0 ;
+1 x497 -1 x558 = 0 ;
+1 x558 -1 x608 = 0 ;
-1 x61 +1 x4 >= 0 ;
-1 x61 +1 x13 >= 0 ;
+1 x61 -1 x4 -1 x13 >= -1 ;
-1 x50 +1 x3 >= 0 ;
-1 x50 +1 x14 >= 0 ;
+1 x50 -1 x3 -1 x14 >= -1 ;
-1 x39 +1 x2 >= 0 ;
-1 x39 +1 x15 >= 0 ;
+1 x39 -1 x2 -1 x15 >= -1 ;
-1 x28 +1 x1 >= 0 ;
-1 x28 +1 x16 >= 0 ;
+1 x28 -1 x1 -1 x16 >= -1 ;
+1 x830 -1 x61 = 0 ;
+2 x675 +1 x819 -1 x50 -1 x663 -1 x830 = 0 ;
+2 x664 +1 x808 -1 x39 -1 x652 -1 x819 = 0 ;
+2 x653 +1 x797 -1 x28 -1 x808 = 0 ;
+1 x797 -1 x1017 = 0 ;
+1 x941 = 0 ;
-1 x178 +1 x1 >= 0 ;
-1 x178 +1 x16 >= 0 ;
+1 x178 -1 x1 -1 x16 >= -1 ;
-1 x177 +1 x2 >= 0 ;
-1 x177 +1 x15 >= 0 ;
+1 x177 -1 x2 -1 x15 >= -1 ;
-1 x176 +1 x3 >= 0 ;
-1 x176 +1 x14 >= 0 ;
+1 x176 -1 x3 -1 x14 >= -1 ;
-1 x175 +1 x4 >= 0 ;
-1 x175 +1 x13 >= 0 ;
+1 x175 -1 x4 -1 x13 >= -1 ;
+2 x318 +1 x319 -1 x177 -1 x175 -1 x176 = 0 ;
+1 x178 -1 x357 = 0 ;
+2 x421 +1 x422 -1 x357 -1 x319 -1 x316 = 0 ;
+2 x498 +1 x499 -1 x419 -1 x422 = 0 ;
+1 x499 -1 x559 = 0 ;
+1 x559 -1 x609 = 0 ;
-1 x73 +1 x5 >= 0 ;
-1 x73 +1 x13 >= 0 ;
+1 x73 -1 x5 -1 x13 >= -1 ;
-1 x62 +1 x4 >= 0 ;
-1 x62 +1 x14 >= 0 ;
+1 x62 -1 x4 -1 x14 >= -1 ;
-1 x51 +1 x3 >= 0 ;
-1 x51 +1 x15 >= 0 ;
+1 x51 -1 x3 -1 x15 >= -1 ;
-1 x40 +1 x2 >= 0 ;
-1 x40 +1 x16 >= 0 ;
+1 x40 -1 x2 -1 x16 >= -1 ;
-1 x29 +1 x1 >= 0 ;
-1 x29 +1 x17 >= 0 ;
+1 x29 -1 x1 -1 x17 >= -1 ;
+1 x842 -1 x73 = 0 ;
+2 x687 +1 x831 -1 x62 -1 x675 -1 x842 = 0 ;
+2 x676 +1 x820 -1 x51 -1 x664 -1 x831 = 0 ;
+2 x665 +1 x809 -1 x40 -1 x653 -1 x820 = 0 ;
+2 x654 +1 x798 -1 x29 -1 x809 = 0 ;
+1 x798 -1 x1018 = 0 ;
+1 x942 = 0 ;
-1 x183 +1 x1 >= 0 ;
-1 x183 +1 x17 >= 0 ;
+1 x183 -1 x1 -1 x17 >= -1 ;
-1 x182 +1 x2 >= 0 ;
-1 x182 +1 x16 >= 0 ;
+1 x182 -1 x2 -1 x16 >= -1 ;
-1 x181 +1 x3 >= 0 ;
-1 x181 +1 x15 >= 0 ;
+1 x181 -1 x3 -1 x15 >= -1 ;
-1 x180 +1 x4 >= 0 ;
-1 x180 +1 x14 >= 0 ;
+1 x180 -1 x4 -1 x14 >= -1 ;
-1 x179 +1 x5 >= 0 ;
-1 x179 +1 x13 >= 0 ;
+1 x179 -1 x5 -1 x13 >= -1 ;
+2 x320 +1 x321 -1 x181 -1 x179 -1 x180 = 0 ;
+2 x358 +1 x359 -1 x183 -1 x182 = 0 ;
+2 x423 +1 x424 -1 x359 -1 x321 -1 x318 = 0 ;
+2 x500 +1 x501 -1 x421 -1 x424 = 0 ;
+2 x560 +1 x561 -1 x498 -1 x501 = 0 ;
+1 x561 -1 x610 = 0 ;
-1 x85 +1 x6 >= 0 ;
-1 x85 +1 x13 >= 0 ;
+1 x85 -1 x6 -1 x13 >= -1 ;
-1 x74 +1 x5 >= 0 ;
-1 x74 +1 x14 >= 0 ;
+1 x74 -1 x5 -1 x14 >= -1 ;
-1 x63 +1 x4 >= 0 ;
-1 x63 +1 x15 >= 0 ;
+1 x63 -1 x4 -1 x15 >= -1 ;
-1 x52 +1 x3 >= 0 ;
-1 x52 +1 x16 >= 0 ;
+1 x52 -1 x3 -1 x16 >= -1 ;
-1 x41 +1 x2 >= 0 ;
-1 x41 +1 x17 >= 0 ;
+1 x41 -1 x2 -1 x17 >= -1 ;
-1 x30 +1 x1 >= 0 ;
-1 x30 +1 x18 >= 0 ;
+1 x30 -1 x1 -1 x18 >= -1 ;
+1 x854 -1 x85 = 0 ;
+2 x699 +1 x843 -1 x74 -1 x687 -1 x854 = 0 ;
+2 x688 +1 x832 -1 x63 -1 x676 -1 x843 = 0 ;
+2 x677 +1 x821 -1 x52 -1 x665 -1 x832 = 0 ;
+2 x666 +1 x810 -1 x41 -1 x654 -1 x821 = 0 ;
+2 x655 +1 x799 -1 x30 -1 x810 = 0 ;
+1 x799 -1 x1019 = 0 ;
+1 x943 = 0 ;
-1 x189 +1 x1 >= 0 ;
-1 x189 +1 x18 >= 0 ;
+1 x189 -1 x1 -1 x18 >= -1 ;
-1 x188 +1 x2 >= 0 ;
-1 x188 +1 x17 >= 0 ;
+1 x188 -1 x2 -1 x17 >= -1 ;
-1 x187 +1 x3 >= 0 ;
-1 x187 +1 x16 >= 0 ;
+1 x187 -1 x3 -1 x16 >= -1 ;
-1 x186 +1 x4 >= 0 ;
-1 x186 +1 x15 >= 0 ;
+1 x186 -1 x4 -1 x15 >= -1 ;
-1 x185 +1 x5 >= 0 ;
-1 x185 +1 x14 >= 0 ;
+1 x185 -1 x5 -1 x14 >= -1 ;
-1 x184 +1 x6 >= 0 ;
-1 x184 +1 x13 >= 0 ;
+1 x184 -1 x6 -1 x13 >= -1 ;
+2 x322 +1 x323 -1 x186 -1 x184 -1 x185 = 0 ;
+2 x360 +1 x361 -1 x189 -1 x187 -1 x188 = 0 ;
+2 x425 +1 x426 -1 x361 -1 x323 -1 x320 = 0 ;
+1 x358 -1 x461 = 0 ;
+2 x502 +1 x503 -1 x461 -1 x426 -1 x423 = 0 ;
+2 x562 +1 x563 -1 x500 -1 x503 = 0 ;
+2 x611 +1 x612 -1 x560 -1 x563 = 0 ;
-1 x97 +1 x7 >= 0 ;
-1 x97 +1 x13 >= 0 ;
+1 x97 -1 x7 -1 x13 >= -1 ;
-1 x86 +1 x6 >= 0 ;
-1 x86 +1 x14 >= 0 ;
+1 x86 -1 x6 -1 x14 >= -1 ;
-1 x75 +1 x5 >= 0 ;
-1 x75 +1 x15 >= 0 ;
+1 x75 -1 x5 -1 x15 >= -1 ;
-1 x64 +1 x4 >= 0 ;
-1 x64 +1 x16 >= 0 ;
+1 x64 -1 x4 -1 x16 >= -1 ;
-1 x53 +1 x3 >= 0 ;
-1 x53 +1 x17 >= 0 ;
+1 x53 -1 x3 -1 x17 >= -1 ;
-1 x42 +1 x2 >= 0 ;
-1 x42 +1 x18 >= 0 ;
+1 x42 -1 x2 -1 x18 >= -1 ;
-1 x31 +1 x1 >= 0 ;
-1 x31 +1 x19 >= 0 ;
+1 x31 -1 x1 -1 x19 >= -1 ;
+1 x866 -1 x97 = 0 ;
+2 x711 +1 x855 -1 x86 -1 x699 -1 x866 = 0 ;
+2 x700 +1 x844 -1 x75 -1 x688 -1 x855 = 0 ;
+2 x689 +1 x833 -1 x64 -1 x677 -1 x844 = 0 ;
+2 x678 +1 x822 -1 x53 -1 x666 -1 x833 = 0 ;
+2 x667 +1 x811 -1 x42 -1 x655 -1 x822 = 0 ;
+2 x656 +1 x800 -1 x31 -1 x811 = 0 ;
+1 x800 -1 x1020 = 0 ;
+1 x944 = 0 ;
-1 x196 +1 x1 >= 0 ;
-1 x196 +1 x19 >= 0 ;
+1 x196 -1 x1 -1 x19 >= -1 ;
-1 x195 +1 x2 >= 0 ;
-1 x195 +1 x18 >= 0 ;
+1 x195 -1 x2 -1 x18 >= -1 ;
-1 x194 +1 x3 >= 0 ;
-1 x194 +1 x17 >= 0 ;
+1 x194 -1 x3 -1 x17 >= -1 ;
-1 x193 +1 x4 >= 0 ;
-1 x193 +1 x16 >= 0 ;
+1 x193 -1 x4 -1 x16 >= -1 ;
-1 x192 +1 x5 >= 0 ;
-1 x192 +1 x15 >= 0 ;
+1 x192 -1 x5 -1 x15 >= -1 ;
-1 x191 +1 x6 >= 0 ;
-1 x191 +1 x14 >= 0 ;
+1 x191 -1 x6 -1 x14 >= -1 ;
-1 x190 +1 x7 >= 0 ;
-1 x190 +1 x13 >= 0 ;
+1 x190 -1 x7 -1 x13 >= -1 ;
+2 x324 +1 x325 -1 x192 -1 x190 -1 x191 = 0 ;
+2 x362 +1 x363 -1 x195 -1 x193 -1 x194 = 0 ;
+1 x196 -1 x389 = 0 ;
+2 x427 +1 x428 -1 x363 -1 x325 -1 x322 = 0 ;
+2 x462 +1 x463 -1 x389 -1 x360 = 0 ;
+2 x504 +1 x505 -1 x463 -1 x428 -1 x425 = 0 ;
+2 x564 +1 x565 -1 x502 -1 x505 = 0 ;
+2 x613 +1 x614 -1 x562 -1 x565 = 0 ;
-1 x109 +1 x8 >= 0 ;
-1 x109 +1 x13 >= 0 ;
+1 x109 -1 x8 -1 x13 >= -1 ;
-1 x98 +1 x7 >= 0 ;
-1 x98 +1 x14 >= 0 ;
+1 x98 -1 x7 -1 x14 >= -1 ;
-1 x87 +1 x6 >= 0 ;
-1 x87 +1 x15 >= 0 ;
+1 x87 -1 x6 -1 x15 >= -1 ;
-1 x76 +1 x5 >= 0 ;
-1 x76 +1 x16 >= 0 ;
+1 x76 -1 x5 -1 x16 >= -1 ;
-1 x65 +1 x4 >= 0 ;
-1 x65 +1 x17 >= 0 ;
+1 x65 -1 x4 -1 x17 >= -1 ;
-1 x54 +1 x3 >= 0 ;
-1 x54 +1 x18 >= 0 ;
+1 x54 -1 x3 -1 x18 >= -1 ;
-1 x43 +1 x2 >= 0 ;
-1 x43 +1 x19 >= 0 ;
+1 x43 -1 x2 -1 x19 >= -1 ;
-1 x32 +1 x1 >= 0 ;
-1 x32 +1 x20 >= 0 ;
+1 x32 -1 x1 -1 x20 >= -1 ;
+1 x878 -1 x109 = 0 ;
+2 x723 +1 x867 -1 x98 -1 x711 -1 x878 = 0 ;
+2 x712 +1 x856 -1 x87 -1 x700 -1 x867 = 0 ;
+2 x701 +1 x845 -1 x76 -1 x689 -1 x856 = 0 ;
+2 x690 +1 x834 -1 x65 -1 x678 -1 x845 = 0 ;
+2 x679 +1 x823 -1 x54 -1 x667 -1 x834 = 0 ;
+2 x668 +1 x812 -1 x43 -1 x656 -1 x823 = 0 ;
+2 x657 +1 x801 -1 x32 -1 x812 = 0 ;
+1 x801 -1 x1021 = 0 ;
+1 x945 = 0 ;
-1 x204 +1 x1 >= 0 ;
-1 x204 +1 x20 >= 0 ;
+1 x204 -1 x1 -1 x20 >= -1 ;
-1 x203 +1 x2 >= 0 ;
-1 x203 +1 x19 >= 0 ;
+1 x203 -1 x2 -1 x19 >= -1 ;
-1 x202 +1 x3 >= 0 ;
-1 x202 +1 x18 >= 0 ;
+1 x202 -1 x3 -1 x18 >= -1 ;
-1 x201 +1 x4 >= 0 ;
-1 x201 +1 x17 >= 0 ;
+1 x201 -1 x4 -1 x17 >= -1 ;
-1 x200 +1 x5 >= 0 ;
-1 x200 +1 x16 >= 0 ;
+1 x200 -1 x5 -1 x16 >= -1 ;
-1 x199 +1 x6 >= 0 ;
-1 x199 +1 x15 >= 0 ;
+1 x199 -1 x6 -1 x15 >= -1 ;
-1 x198 +1 x7 >= 0 ;
-1 x198 +1 x14 >= 0 ;
+1 x198 -1 x7 -1 x14 >= -1 ;
-1 x197 +1 x8 >= 0 ;
-1 x197 +1 x13 >= 0 ;
+1 x197 -1 x8 -1 x13 >= -1 ;
+2 x326 +1 x327 -1 x199 -1 x197 -1 x198 = 0 ;
+2 x364 +1 x365 -1 x202 -1 x200 -1 x201 = 0 ;
+2 x390 +1 x391 -1 x204 -1 x203 = 0 ;
+2 x429 +1 x430 -1 x365 -1 x327 -1 x324 = 0 ;
+2 x464 +1 x465 -1 x391 -1 x362 = 0 ;
+2 x506 +1 x507 -1 x465 -1 x430 -1 x427 = 0 ;
+1 x462 -1 x539 = 0 ;
+2 x566 +1 x567 -1 x539 -1 x507 -1 x504 = 0 ;
+2 x615 +1 x616 -1 x564 -1 x567 = 0 ;
-1 x121 +1 x9 >= 0 ;
-1 x121 +1 x13 >= 0 ;
+1 x121 -1 x9 -1 x13 >= -1 ;
-1 x110 +1 x8 >= 0 ;
-1 x110 +1 x14 >= 0 ;
+1 x110 -1 x8 -1 x14 >= -1 ;
-1 x99 +1 x7 >= 0 ;
-1 x99 +1 x15 >= 0 ;
+1 x99 -1 x7 -1 x15 >= -1 ;
-1 x88 +1 x6 >= 0 ;
-1 x88 +1 x16 >= 0 ;
+1 x88 -1 x6 -1 x16 >= -1 ;
-1 x77 +1 x5 >= 0 ;
-1 x77 +1 x17 >= 0 ;
+1 x77 -1 x5 -1 x17 >= -1 ;
-1 x66 +1 x4 >= 0 ;
-1 x66 +1 x18 >= 0 ;
+1 x66 -1 x4 -1 x18 >= -1 ;
-1 x55 +1 x3 >= 0 ;
-1 x55 +1 x19 >= 0 ;
+1 x55 -1 x3 -1 x19 >= -1 ;
-1 x44 +1 x2 >= 0 ;
-1 x44 +1 x20 >= 0 ;
+1 x44 -1 x2 -1 x20 >= -1 ;
-1 x33 +1 x1 >= 0 ;
-1 x33 +1 x21 >= 0 ;
+1 x33 -1 x1 -1 x21 >= -1 ;
+1 x890 -1 x121 = 0 ;
+2 x735 +1 x879 -1 x110 -1 x723 -1 x890 = 0 ;
+2 x724 +1 x868 -1 x99 -1 x712 -1 x879 = 0 ;
+2 x713 +1 x857 -1 x88 -1 x701 -1 x868 = 0 ;
+2 x702 +1 x846 -1 x77 -1 x690 -1 x857 = 0 ;
+2 x691 +1 x835 -1 x66 -1 x679 -1 x846 = 0 ;
+2 x680 +1 x824 -1 x55 -1 x668 -1 x835 = 0 ;
+2 x669 +1 x813 -1 x44 -1 x657 -1 x824 = 0 ;
+2 x658 +1 x802 -1 x33 -1 x813 = 0 ;
+1 x802 -1 x1022 = 0 ;
+1 x946 = 0 ;
-1 x213 +1 x1 >= 0 ;
-1 x213 +1 x21 >= 0 ;
+1 x213 -1 x1 -1 x21 >= -1 ;
-1 x212 +1 x2 >= 0 ;
-1 x212 +1 x20 >= 0 ;
+1 x212 -1 x2 -1 x20 >= -1 ;
-1 x211 +1 x3 >= 0 ;
-1 x211 +1 x19 >= 0 ;
+1 x211 -1 x3 -1 x19 >= -1 ;
-1 x210 +1 x4 >= 0 ;
-1 x210 +1 x18 >= 0 ;
+1 x210 -1 x4 -1 x18 >= -1 ;
-1 x209 +1 x5 >= 0 ;
-1 x209 +1 x17 >= 0 ;
+1 x209 -1 x5 -1 x17 >= -1 ;
-1 x208 +1 x6 >= 0 ;
-1 x208 +1 x16 >= 0 ;
+1 x208 -1 x6 -1 x16 >= -1 ;
-1 x207 +1 x7 >= 0 ;
-1 x207 +1 x15 >= 0 ;
+1 x207 -1 x7 -1 x15 >= -1 ;
-1 x206 +1 x8 >= 0 ;
-1 x206 +1 x14 >= 0 ;
+1 x206 -1 x8 -1 x14 >= -1 ;
-1 x205 +1 x9 >= 0 ;
-1 x205 +1 x13 >= 0 ;
+1 x205 -1 x9 -1 x13 >= -1 ;
+2 x328 +1 x329 -1 x207 -1 x205 -1 x206 = 0 ;
+2 x366 +1 x367 -1 x210 -1 x208 -1 x209 = 0 ;
+2 x392 +1 x393 -1 x213 -1 x211 -1 x212 = 0 ;
+2 x431 +1 x432 -1 x367 -1 x329 -1 x326 = 0 ;
+2 x466 +1 x467 -1 x390 -1 x364 -1 x393 = 0 ;
+2 x508 +1 x509 -1 x467 -1 x432 -1 x429 = 0 ;
+1 x464 -1 x540 = 0 ;
+2 x568 +1 x569 -1 x540 -1 x509 -1 x506 = 0 ;
+2 x617 +1 x618 -1 x566 -1 x569 = 0 ;
-1 x133 +1 x10 >= 0 ;
-1 x133 +1 x13 >= 0 ;
+1 x133 -1 x10 -1 x13 >= -1 ;
-1 x122 +1 x9 >= 0 ;
-1 x122 +1 x14 >= 0 ;
+1 x122 -1 x9 -1 x14 >= -1 ;
-1 x111 +1 x8 >= 0 ;
-1 x111 +1 x15 >= 0 ;
+1 x111 -1 x8 -1 x15 >= -1 ;
-1 x100 +1 x7 >= 0 ;
-1 x100 +1 x16 >= 0 ;
+1 x100 -1 x7 -1 x16 >= -1 ;
-1 x89 +1 x6 >= 0 ;
-1 x89 +1 x17 >= 0 ;
+1 x89 -1 x6 -1 x17 >= -1 ;
-1 x78 +1 x5 >= 0 ;
-1 x78 +1 x18 >= 0 ;
+1 x78 -1 x5 -1 x18 >= -1 ;
-1 x67 +1 x4 >= 0 ;
-1 x67 +1 x19 >= 0 ;
+1 x67 -1 x4 -1 x19 >= -1 ;
-1 x56 +1 x3 >= 0 ;
-1 x56 +1 x20 >= 0 ;
+1 x56 -1 x3 -1 x20 >= -1 ;
-1 x45 +1 x2 >= 0 ;
-1 x45 +1 x21 >= 0 ;
+1 x45 -1 x2 -1 x21 >= -1 ;
-1 x34 +1 x1 >= 0 ;
-1 x34 +1 x22 >= 0 ;
+1 x34 -1 x1 -1 x22 >= -1 ;
+1 x902 -1 x133 = 0 ;
+2 x747 +1 x891 -1 x122 -1 x735 -1 x902 = 0 ;
+2 x736 +1 x880 -1 x111 -1 x724 -1 x891 = 0 ;
+2 x725 +1 x869 -1 x100 -1 x713 -1 x880 = 0 ;
+2 x714 +1 x858 -1 x89 -1 x702 -1 x869 = 0 ;
+2 x703 +1 x847 -1 x78 -1 x691 -1 x858 = 0 ;
+2 x692 +1 x836 -1 x67 -1 x680 -1 x847 = 0 ;
+2 x681 +1 x825 -1 x56 -1 x669 -1 x836 = 0 ;
+2 x670 +1 x814 -1 x45 -1 x658 -1 x825 = 0 ;
+2 x659 +1 x803 -1 x34 -1 x814 = 0 ;
+1 x803 -1 x1023 = 0 ;
+1 x947 = 0 ;
-1 x223 +1 x1 >= 0 ;
-1 x223 +1 x22 >= 0 ;
+1 x223 -1 x1 -1 x22 >= -1 ;
-1 x222 +1 x2 >= 0 ;
-1 x222 +1 x21 >= 0 ;
+1 x222 -1 x2 -1 x21 >= -1 ;
-1 x221 +1 x3 >= 0 ;
-1 x221 +1 x20 >= 0 ;
+1 x221 -1 x3 -1 x20 >= -1 ;
-1 x220 +1 x4 >= 0 ;
-1 x220 +1 x19 >= 0 ;
+1 x220 -1 x4 -1 x19 >= -1 ;
-1 x219 +1 x5 >= 0 ;
-1 x219 +1 x18 >= 0 ;
+1 x219 -1 x5 -1 x18 >= -1 ;
-1 x218 +1 x6 >= 0 ;
-1 x218 +1 x17 >= 0 ;
+1 x218 -1 x6 -1 x17 >= -1 ;
-1 x217 +1 x7 >= 0 ;
-1 x217 +1 x16 >= 0 ;
+1 x217 -1 x7 -1 x16 >= -1 ;
-1 x216 +1 x8 >= 0 ;
-1 x216 +1 x15 >= 0 ;
+1 x216 -1 x8 -1 x15 >= -1 ;
-1 x215 +1 x9 >= 0 ;
-1 x215 +1 x14 >= 0 ;
+1 x215 -1 x9 -1 x14 >= -1 ;
-1 x214 +1 x10 >= 0 ;
-1 x214 +1 x13 >= 0 ;
+1 x214 -1 x10 -1 x13 >= -1 ;
+2 x330 +1 x331 -1 x216 -1 x214 -1 x215 = 0 ;
+2 x368 +1 x369 -1 x219 -1 x217 -1 x218 = 0 ;
+2 x394 +1 x395 -1 x222 -1 x220 -1 x221 = 0 ;
+1 x223 -1 x409 = 0 ;
+2 x433 +1 x434 -1 x369 -1 x331 -1 x328 = 0 ;
+2 x468 +1 x469 -1 x392 -1 x366 -1 x395 = 0 ;
+1 x409 -1 x487 = 0 ;
+2 x510 +1 x511 -1 x469 -1 x434 -1 x431 = 0 ;
+2 x541 +1 x542 -1 x487 -1 x466 = 0 ;
+2 x570 +1 x571 -1 x542 -1 x511 -1 x508 = 0 ;
+2 x619 +1 x620 -1 x568 -1 x571 = 0 ;
-1 x145 +1 x11 >= 0 ;
-1 x145 +1 x13 >= 0 ;
+1 x145 -1 x11 -1 x13 >= -1 ;
-1 x134 +1 x10 >= 0 ;
-1 x134 +1 x14 >= 0 ;
+1 x134 -1 x10 -1 x14 >= -1 ;
-1 x123 +1 x9 >= 0 ;
-1 x123 +1 x15 >= 0 ;
+1 x123 -1 x9 -1 x15 >= -1 ;
-1 x112 +1 x8 >= 0 ;
-1 x112 +1 x16 >= 0 ;
+1 x112 -1 x8 -1 x16 >= -1 ;
-1 x101 +1 x7 >= 0 ;
-1 x101 +1 x17 >= 0 ;
+1 x101 -1 x7 -1 x17 >= -1 ;
-1 x90 +1 x6 >= 0 ;
-1 x90 +1 x18 >= 0 ;
+1 x90 -1 x6 -1 x18 >= -1 ;
-1 x79 +1 x5 >= 0 ;
-1 x79 +1 x19 >= 0 ;
+1 x79 -1 x5 -1 x19 >= -1 ;
-1 x68 +1 x4 >= 0 ;
-1 x68 +1 x20 >= 0 ;
+1 x68 -1 x4 -1 x20 >= -1 ;
-1 x57 +1 x3 >= 0 ;
-1 x57 +1 x21 >= 0 ;
+1 x57 -1 x3 -1 x21 >= -1 ;
-1 x46 +1 x2 >= 0 ;
-1 x46 +1 x22 >= 0 ;
+1 x46 -1 x2 -1 x22 >= -1 ;
-1 x35 +1 x1 >= 0 ;
-1 x35 +1 x23 >= 0 ;
+1 x35 -1 x1 -1 x23 >= -1 ;
+1 x914 -1 x145 = 0 ;
+2 x759 +1 x903 -1 x134 -1 x747 -1 x914 = 0 ;
+2 x748 +1 x892 -1 x123 -1 x736 -1 x903 = 0 ;
+2 x737 +1 x881 -1 x112 -1 x725 -1 x892 = 0 ;
+2 x726 +1 x870 -1 x101 -1 x714 -1 x881 = 0 ;
+2 x715 +1 x859 -1 x90 -1 x703 -1 x870 = 0 ;
+2 x704 +1 x848 -1 x79 -1 x692 -1 x859 = 0 ;
+2 x693 +1 x837 -1 x68 -1 x681 -1 x848 = 0 ;
+2 x682 +1 x826 -1 x57 -1 x670 -1 x837 = 0 ;
+2 x671 +1 x815 -1 x46 -1 x659 -1 x826 = 0 ;
+2 x660 +1 x804 -1 x35 -1 x815 = 0 ;
+1 x804 -1 x1024 = 0 ;
+1 x948 = 0 ;
-1 x234 +1 x1 >= 0 ;
-1 x234 +1 x23 >= 0 ;
+1 x234 -1 x1 -1 x23 >= -1 ;
-1 x233 +1 x2 >= 0 ;
-1 x233 +1 x22 >= 0 ;
+1 x233 -1 x2 -1 x22 >= -1 ;
-1 x232 +1 x3 >= 0 ;
-1 x232 +1 x21 >= 0 ;
+1 x232 -1 x3 -1 x21 >= -1 ;
-1 x231 +1 x4 >= 0 ;
-1 x231 +1 x20 >= 0 ;
+1 x231 -1 x4 -1 x20 >= -1 ;
-1 x230 +1 x5 >= 0 ;
-1 x230 +1 x19 >= 0 ;
+1 x230 -1 x5 -1 x19 >= -1 ;
-1 x229 +1 x6 >= 0 ;
-1 x229 +1 x18 >= 0 ;
+1 x229 -1 x6 -1 x18 >= -1 ;
-1 x228 +1 x7 >= 0 ;
-1 x228 +1 x17 >= 0 ;
+1 x228 -1 x7 -1 x17 >= -1 ;
-1 x227 +1 x8 >= 0 ;
-1 x227 +1 x16 >= 0 ;
+1 x227 -1 x8 -1 x16 >= -1 ;
-1 x226 +1 x9 >= 0 ;
-1 x226 +1 x15 >= 0 ;
+1 x226 -1 x9 -1 x15 >= -1 ;
-1 x225 +1 x10 >= 0 ;
-1 x225 +1 x14 >= 0 ;
+1 x225 -1 x10 -1 x14 >= -1 ;
-1 x224 +1 x11 >= 0 ;
-1 x224 +1 x13 >= 0 ;
+1 x224 -1 x11 -1 x13 >= -1 ;
+2 x332 +1 x333 -1 x226 -1 x224 -1 x225 = 0 ;
+2 x370 +1 x371 -1 x229 -1 x227 -1 x228 = 0 ;
+2 x396 +1 x397 -1 x232 -1 x230 -1 x231 = 0 ;
+2 x410 +1 x411 -1 x234 -1 x233 = 0 ;
+2 x435 +1 x436 -1 x371 -1 x333 -1 x330 = 0 ;
+2 x470 +1 x471 -1 x394 -1 x368 -1 x397 = 0 ;
+1 x411 -1 x488 = 0 ;
+2 x512 +1 x513 -1 x471 -1 x436 -1 x433 = 0 ;
+2 x543 +1 x544 -1 x488 -1 x468 = 0 ;
+2 x572 +1 x573 -1 x544 -1 x513 -1 x510 = 0 ;
+1 x541 -1 x600 = 0 ;
+2 x621 +1 x622 -1 x600 -1 x573 -1 x570 = 0 ;
-1 x157 +1 x12 >= 0 ;
-1 x157 +1 x13 >= 0 ;
+1 x157 -1 x12 -1 x13 >= -1 ;
-1 x146 +1 x11 >= 0 ;
-1 x146 +1 x14 >= 0 ;
+1 x146 -1 x11 -1 x14 >= -1 ;
-1 x135 +1 x10 >= 0 ;
-1 x135 +1 x15 >= 0 ;
+1 x135 -1 x10 -1 x15 >= -1 ;
-1 x124 +1 x9 >= 0 ;
-1 x124 +1 x16 >= 0 ;
+1 x124 -1 x9 -1 x16 >= -1 ;
-1 x113 +1 x8 >= 0 ;
-1 x113 +1 x17 >= 0 ;
+1 x113 -1 x8 -1 x17 >= -1 ;
-1 x102 +1 x7 >= 0 ;
-1 x102 +1 x18 >= 0 ;
+1 x102 -1 x7 -1 x18 >= -1 ;
-1 x91 +1 x6 >= 0 ;
-1 x91 +1 x19 >= 0 ;
+1 x91 -1 x6 -1 x19 >= -1 ;
-1 x80 +1 x5 >= 0 ;
-1 x80 +1 x20 >= 0 ;
+1 x80 -1 x5 -1 x20 >= -1 ;
-1 x69 +1 x4 >= 0 ;
-1 x69 +1 x21 >= 0 ;
+1 x69 -1 x4 -1 x21 >= -1 ;
-1 x58 +1 x3 >= 0 ;
-1 x58 +1 x22 >= 0 ;
+1 x58 -1 x3 -1 x22 >= -1 ;
-1 x47 +1 x2 >= 0 ;
-1 x47 +1 x23 >= 0 ;
+1 x47 -1 x2 -1 x23 >= -1 ;
-1 x36 +1 x1 >= 0 ;
-1 x36 +1 x24 >= 0 ;
+1 x36 -1 x1 -1 x24 >= -1 ;
+1 x926 -1 x157 = 0 ;
+2 x771 +1 x915 -1 x146 -1 x759 -1 x926 = 0 ;
+2 x760 +1 x904 -1 x135 -1 x748 -1 x915 = 0 ;
+2 x749 +1 x893 -1 x124 -1 x737 -1 x904 = 0 ;
+2 x738 +1 x882 -1 x113 -1 x726 -1 x893 = 0 ;
+2 x727 +1 x871 -1 x102 -1 x715 -1 x882 = 0 ;
+2 x716 +1 x860 -1 x91 -1 x704 -1 x871 = 0 ;
+2 x705 +1 x849 -1 x80 -1 x693 -1 x860 = 0 ;
+2 x694 +1 x838 -1 x69 -1 x682 -1 x849 = 0 ;
+2 x683 +1 x827 -1 x58 -1 x671 -1 x838 = 0 ;
+2 x672 +1 x816 -1 x47 -1 x660 -1 x827 = 0 ;
+2 x661 +1 x805 -1 x36 -1 x816 = 0 ;
+1 x805 -1 x1025 = 0 ;
+1 x949 = 0 ;
-1 x246 +1 x1 >= 0 ;
-1 x246 +1 x24 >= 0 ;
+1 x246 -1 x1 -1 x24 >= -1 ;
-1 x245 +1 x2 >= 0 ;
-1 x245 +1 x23 >= 0 ;
+1 x245 -1 x2 -1 x23 >= -1 ;
-1 x244 +1 x3 >= 0 ;
-1 x244 +1 x22 >= 0 ;
+1 x244 -1 x3 -1 x22 >= -1 ;
-1 x243 +1 x4 >= 0 ;
-1 x243 +1 x21 >= 0 ;
+1 x243 -1 x4 -1 x21 >= -1 ;
-1 x242 +1 x5 >= 0 ;
-1 x242 +1 x20 >= 0 ;
+1 x242 -1 x5 -1 x20 >= -1 ;
-1 x241 +1 x6 >= 0 ;
-1 x241 +1 x19 >= 0 ;
+1 x241 -1 x6 -1 x19 >= -1 ;
-1 x240 +1 x7 >= 0 ;
-1 x240 +1 x18 >= 0 ;
+1 x240 -1 x7 -1 x18 >= -1 ;
-1 x239 +1 x8 >= 0 ;
-1 x239 +1 x17 >= 0 ;
+1 x239 -1 x8 -1 x17 >= -1 ;
-1 x238 +1 x9 >= 0 ;
-1 x238 +1 x16 >= 0 ;
+1 x238 -1 x9 -1 x16 >= -1 ;
-1 x237 +1 x10 >= 0 ;
-1 x237 +1 x15 >= 0 ;
+1 x237 -1 x10 -1 x15 >= -1 ;
-1 x236 +1 x11 >= 0 ;
-1 x236 +1 x14 >= 0 ;
+1 x236 -1 x11 -1 x14 >= -1 ;
-1 x235 +1 x12 >= 0 ;
-1 x235 +1 x13 >= 0 ;
+1 x235 -1 x12 -1 x13 >= -1 ;
+2 x334 +1 x335 -1 x237 -1 x235 -1 x236 = 0 ;
+2 x372 +1 x373 -1 x240 -1 x238 -1 x239 = 0 ;
+2 x398 +1 x399 -1 x243 -1 x241 -1 x242 = 0 ;
+2 x412 +1 x413 -1 x246 -1 x244 -1 x245 = 0 ;
+2 x437 +1 x438 -1 x373 -1 x335 -1 x332 = 0 ;
+2 x472 +1 x473 -1 x396 -1 x370 -1 x399 = 0 ;
+2 x489 +1 x490 -1 x410 -1 x413 = 0 ;
+2 x514 +1 x515 -1 x473 -1 x438 -1 x435 = 0 ;
+2 x545 +1 x546 -1 x490 -1 x470 = 0 ;
+2 x574 +1 x575 -1 x546 -1 x515 -1 x512 = 0 ;
+1 x543 -1 x601 = 0 ;
+2 x623 +1 x624 -1 x601 -1 x575 -1 x572 = 0 ;
-1 x158 +1 x12 >= 0 ;
-1 x158 +1 x14 >= 0 ;
+1 x158 -1 x12 -1 x14 >= -1 ;
-1 x147 +1 x11 >= 0 ;
-1 x147 +1 x15 >= 0 ;
+1 x147 -1 x11 -1 x15 >= -1 ;
-1 x136 +1 x10 >= 0 ;
-1 x136 +1 x16 >= 0 ;
+1 x136 -1 x10 -1 x16 >= -1 ;
-1 x125 +1 x9 >= 0 ;
-1 x125 +1 x17 >= 0 ;
+1 x125 -1 x9 -1 x17 >= -1 ;
-1 x114 +1 x8 >= 0 ;
-1 x114 +1 x18 >= 0 ;
+1 x114 -1 x8 -1 x18 >= -1 ;
-1 x103 +1 x7 >= 0 ;
-1 x103 +1 x19 >= 0 ;
+1 x103 -1 x7 -1 x19 >= -1 ;
-1 x92 +1 x6 >= 0 ;
-1 x92 +1 x20 >= 0 ;
+1 x92 -1 x6 -1 x20 >= -1 ;
-1 x81 +1 x5 >= 0 ;
-1 x81 +1 x21 >= 0 ;
+1 x81 -1 x5 -1 x21 >= -1 ;
-1 x70 +1 x4 >= 0 ;
-1 x70 +1 x22 >= 0 ;
+1 x70 -1 x4 -1 x22 >= -1 ;
-1 x59 +1 x3 >= 0 ;
-1 x59 +1 x23 >= 0 ;
+1 x59 -1 x3 -1 x23 >= -1 ;
-1 x48 +1 x2 >= 0 ;
-1 x48 +1 x24 >= 0 ;
+1 x48 -1 x2 -1 x24 >= -1 ;
+2 x783 +1 x927 -1 x158 -1 x771 = 0 ;
+2 x772 +1 x916 -1 x147 -1 x760 -1 x927 = 0 ;
+2 x761 +1 x905 -1 x136 -1 x749 -1 x916 = 0 ;
+2 x750 +1 x894 -1 x125 -1 x738 -1 x905 = 0 ;
+2 x739 +1 x883 -1 x114 -1 x727 -1 x894 = 0 ;
+2 x728 +1 x872 -1 x103 -1 x716 -1 x883 = 0 ;
+2 x717 +1 x861 -1 x92 -1 x705 -1 x872 = 0 ;
+2 x706 +1 x850 -1 x81 -1 x694 -1 x861 = 0 ;
+2 x695 +1 x839 -1 x70 -1 x683 -1 x850 = 0 ;
+2 x684 +1 x828 -1 x59 -1 x672 -1 x839 = 0 ;
+2 x673 +1 x817 -1 x48 -1 x661 -1 x828 = 0 ;
+1 x817 -1 x1026 = 0 ;
+1 x950 = 0 ;
-1 x257 +1 x2 >= 0 ;
-1 x257 +1 x24 >= 0 ;
+1 x257 -1 x2 -1 x24 >= -1 ;
-1 x256 +1 x3 >= 0 ;
-1 x256 +1 x23 >= 0 ;
+1 x256 -1 x3 -1 x23 >= -1 ;
-1 x255 +1 x4 >= 0 ;
-1 x255 +1 x22 >= 0 ;
+1 x255 -1 x4 -1 x22 >= -1 ;
-1 x254 +1 x5 >= 0 ;
-1 x254 +1 x21 >= 0 ;
+1 x254 -1 x5 -1 x21 >= -1 ;
-1 x253 +1 x6 >= 0 ;
-1 x253 +1 x20 >= 0 ;
+1 x253 -1 x6 -1 x20 >= -1 ;
-1 x252 +1 x7 >= 0 ;
-1 x252 +1 x19 >= 0 ;
+1 x252 -1 x7 -1 x19 >= -1 ;
-1 x251 +1 x8 >= 0 ;
-1 x251 +1 x18 >= 0 ;
+1 x251 -1 x8 -1 x18 >= -1 ;
-1 x250 +1 x9 >= 0 ;
-1 x250 +1 x17 >= 0 ;
+1 x250 -1 x9 -1 x17 >= -1 ;
-1 x249 +1 x10 >= 0 ;
-1 x249 +1 x16 >= 0 ;
+1 x249 -1 x10 -1 x16 >= -1 ;
-1 x248 +1 x11 >= 0 ;
-1 x248 +1 x15 >= 0 ;
+1 x248 -1 x11 -1 x15 >= -1 ;
-1 x247 +1 x12 >= 0 ;
-1 x247 +1 x14 >= 0 ;
+1 x247 -1 x12 -1 x14 >= -1 ;
+2 x336 +1 x337 -1 x249 -1 x247 -1 x248 = 0 ;
+2 x374 +1 x375 -1 x252 -1 x250 -1 x251 = 0 ;
+2 x400 +1 x401 -1 x255 -1 x253 -1 x254 = 0 ;
+2 x414 +1 x415 -1 x257 -1 x256 = 0 ;
+2 x439 +1 x440 -1 x375 -1 x337 -1 x334 = 0 ;
+2 x474 +1 x475 -1 x398 -1 x372 -1 x401 = 0 ;
+2 x491 +1 x492 -1 x412 -1 x415 = 0 ;
+2 x516 +1 x517 -1 x475 -1 x440 -1 x437 = 0 ;
+2 x547 +1 x548 -1 x489 -1 x472 -1 x492 = 0 ;
+2 x576 +1 x577 -1 x548 -1 x517 -1 x514 = 0 ;
+1 x545 -1 x602 = 0 ;
+2 x625 +1 x626 -1 x602 -1 x577 -1 x574 = 0 ;
-1 x159 +1 x12 >= 0 ;
-1 x159 +1 x15 >= 0 ;
+1 x159 -1 x12 -1 x15 >= -1 ;
-1 x148 +1 x11 >= 0 ;
-1 x148 +1 x16 >= 0 ;
+1 x148 -1 x11 -1 x16 >= -1 ;
-1 x137 +1 x10 >= 0 ;
-1 x137 +1 x17 >= 0 ;
+1 x137 -1 x10 -1 x17 >= -1 ;
-1 x126 +1 x9 >= 0 ;
-1 x126 +1 x18 >= 0 ;
+1 x126 -1 x9 -1 x18 >= -1 ;
-1 x115 +1 x8 >= 0 ;
-1 x115 +1 x19 >= 0 ;
+1 x115 -1 x8 -1 x19 >= -1 ;
-1 x104 +1 x7 >= 0 ;
-1 x104 +1 x20 >= 0 ;
+1 x104 -1 x7 -1 x20 >= -1 ;
-1 x93 +1 x6 >= 0 ;
-1 x93 +1 x21 >= 0 ;
+1 x93 -1 x6 -1 x21 >= -1 ;
-1 x82 +1 x5 >= 0 ;
-1 x82 +1 x22 >= 0 ;
+1 x82 -1 x5 -1 x22 >= -1 ;
-1 x71 +1 x4 >= 0 ;
-1 x71 +1 x23 >= 0 ;
+1 x71 -1 x4 -1 x23 >= -1 ;
-1 x60 +1 x3 >= 0 ;
-1 x60 +1 x24 >= 0 ;
+1 x60 -1 x3 -1 x24 >= -1 ;
+2 x784 +1 x928 -1 x159 -1 x772 -1 x783 = 0 ;
+2 x773 +1 x917 -1 x148 -1 x761 -1 x928 = 0 ;
+2 x762 +1 x906 -1 x137 -1 x750 -1 x917 = 0 ;
+2 x751 +1 x895 -1 x126 -1 x739 -1 x906 = 0 ;
+2 x740 +1 x884 -1 x115 -1 x728 -1 x895 = 0 ;
+2 x729 +1 x873 -1 x104 -1 x717 -1 x884 = 0 ;
+2 x718 +1 x862 -1 x93 -1 x706 -1 x873 = 0 ;
+2 x707 +1 x851 -1 x82 -1 x695 -1 x862 = 0 ;
+2 x696 +1 x840 -1 x71 -1 x684 -1 x851 = 0 ;
+2 x685 +1 x829 -1 x60 -1 x673 -1 x840 = 0 ;
+1 x829 -1 x1027 = 0 ;
+1 x951 = 0 ;
-1 x267 +1 x3 >= 0 ;
-1 x267 +1 x24 >= 0 ;
+1 x267 -1 x3 -1 x24 >= -1 ;
-1 x266 +1 x4 >= 0 ;
-1 x266 +1 x23 >= 0 ;
+1 x266 -1 x4 -1 x23 >= -1 ;
-1 x265 +1 x5 >= 0 ;
-1 x265 +1 x22 >= 0 ;
+1 x265 -1 x5 -1 x22 >= -1 ;
-1 x264 +1 x6 >= 0 ;
-1 x264 +1 x21 >= 0 ;
+1 x264 -1 x6 -1 x21 >= -1 ;
-1 x263 +1 x7 >= 0 ;
-1 x263 +1 x20 >= 0 ;
+1 x263 -1 x7 -1 x20 >= -1 ;
-1 x262 +1 x8 >= 0 ;
-1 x262 +1 x19 >= 0 ;
+1 x262 -1 x8 -1 x19 >= -1 ;
-1 x261 +1 x9 >= 0 ;
-1 x261 +1 x18 >= 0 ;
+1 x261 -1 x9 -1 x18 >= -1 ;
-1 x260 +1 x10 >= 0 ;
-1 x260 +1 x17 >= 0 ;
+1 x260 -1 x10 -1 x17 >= -1 ;
-1 x259 +1 x11 >= 0 ;
-1 x259 +1 x16 >= 0 ;
+1 x259 -1 x11 -1 x16 >= -1 ;
-1 x258 +1 x12 >= 0 ;
-1 x258 +1 x15 >= 0 ;
+1 x258 -1 x12 -1 x15 >= -1 ;
+2 x338 +1 x339 -1 x260 -1 x258 -1 x259 = 0 ;
+2 x376 +1 x377 -1 x263 -1 x261 -1 x262 = 0 ;
+2 x402 +1 x403 -1 x266 -1 x264 -1 x265 = 0 ;
+1 x267 -1 x416 = 0 ;
+2 x441 +1 x442 -1 x377 -1 x339 -1 x336 = 0 ;
+2 x476 +1 x477 -1 x400 -1 x374 -1 x403 = 0 ;
+2 x493 +1 x494 -1 x414 -1 x416 = 0 ;
+2 x518 +1 x519 -1 x477 -1 x442 -1 x439 = 0 ;
+2 x549 +1 x550 -1 x491 -1 x474 -1 x494 = 0 ;
+2 x578 +1 x579 -1 x550 -1 x519 -1 x516 = 0 ;
+1 x547 -1 x603 = 0 ;
+2 x627 +1 x628 -1 x603 -1 x579 -1 x576 = 0 ;
-1 x160 +1 x12 >= 0 ;
-1 x160 +1 x16 >= 0 ;
+1 x160 -1 x12 -1 x16 >= -1 ;
-1 x149 +1 x11 >= 0 ;
-1 x149 +1 x17 >= 0 ;
+1 x149 -1 x11 -1 x17 >= -1 ;
-1 x138 +1 x10 >= 0 ;
-1 x138 +1 x18 >= 0 ;
+1 x138 -1 x10 -1 x18 >= -1 ;
-1 x127 +1 x9 >= 0 ;
-1 x127 +1 x19 >= 0 ;
+1 x127 -1 x9 -1 x19 >= -1 ;
-1 x116 +1 x8 >= 0 ;
-1 x116 +1 x20 >= 0 ;
+1 x116 -1 x8 -1 x20 >= -1 ;
-1 x105 +1 x7 >= 0 ;
-1 x105 +1 x21 >= 0 ;
+1 x105 -1 x7 -1 x21 >= -1 ;
-1 x94 +1 x6 >= 0 ;
-1 x94 +1 x22 >= 0 ;
+1 x94 -1 x6 -1 x22 >= -1 ;
-1 x83 +1 x5 >= 0 ;
-1 x83 +1 x23 >= 0 ;
+1 x83 -1 x5 -1 x23 >= -1 ;
-1 x72 +1 x4 >= 0 ;
-1 x72 +1 x24 >= 0 ;
+1 x72 -1 x4 -1 x24 >= -1 ;
+2 x785 +1 x929 -1 x160 -1 x773 -1 x784 = 0 ;
+2 x774 +1 x918 -1 x149 -1 x762 -1 x929 = 0 ;
+2 x763 +1 x907 -1 x138 -1 x751 -1 x918 = 0 ;
+2 x752 +1 x896 -1 x127 -1 x740 -1 x907 = 0 ;
+2 x741 +1 x885 -1 x116 -1 x729 -1 x896 = 0 ;
+2 x730 +1 x874 -1 x105 -1 x718 -1 x885 = 0 ;
+2 x719 +1 x863 -1 x94 -1 x707 -1 x874 = 0 ;
+2 x708 +1 x852 -1 x83 -1 x696 -1 x863 = 0 ;
+2 x697 +1 x841 -1 x72 -1 x685 -1 x852 = 0 ;
+1 x841 -1 x1028 = 0 ;
+1 x952 = 0 ;
-1 x276 +1 x4 >= 0 ;
-1 x276 +1 x24 >= 0 ;
+1 x276 -1 x4 -1 x24 >= -1 ;
-1 x275 +1 x5 >= 0 ;
-1 x275 +1 x23 >= 0 ;
+1 x275 -1 x5 -1 x23 >= -1 ;
-1 x274 +1 x6 >= 0 ;
-1 x274 +1 x22 >= 0 ;
+1 x274 -1 x6 -1 x22 >= -1 ;
-1 x273 +1 x7 >= 0 ;
-1 x273 +1 x21 >= 0 ;
+1 x273 -1 x7 -1 x21 >= -1 ;
-1 x272 +1 x8 >= 0 ;
-1 x272 +1 x20 >= 0 ;
+1 x272 -1 x8 -1 x20 >= -1 ;
-1 x271 +1 x9 >= 0 ;
-1 x271 +1 x19 >= 0 ;
+1 x271 -1 x9 -1 x19 >= -1 ;
-1 x270 +1 x10 >= 0 ;
-1 x270 +1 x18 >= 0 ;
+1 x270 -1 x10 -1 x18 >= -1 ;
-1 x269 +1 x11 >= 0 ;
-1 x269 +1 x17 >= 0 ;
+1 x269 -1 x11 -1 x17 >= -1 ;
-1 x268 +1 x12 >= 0 ;
-1 x268 +1 x16 >= 0 ;
+1 x268 -1 x12 -1 x16 >= -1 ;
+2 x340 +1 x341 -1 x270 -1 x268 -1 x269 = 0 ;
+2 x378 +1 x379 -1 x273 -1 x271 -1 x272 = 0 ;
+2 x404 +1 x405 -1 x276 -1 x274 -1 x275 = 0 ;
+2 x443 +1 x444 -1 x379 -1 x341 -1 x338 = 0 ;
+2 x478 +1 x479 -1 x402 -1 x376 -1 x405 = 0 ;
+2 x520 +1 x521 -1 x479 -1 x444 -1 x441 = 0 ;
+2 x551 +1 x552 -1 x493 -1 x476 = 0 ;
+2 x580 +1 x581 -1 x552 -1 x521 -1 x518 = 0 ;
+1 x549 -1 x604 = 0 ;
+2 x629 +1 x630 -1 x604 -1 x581 -1 x578 = 0 ;
-1 x161 +1 x12 >= 0 ;
-1 x161 +1 x17 >= 0 ;
+1 x161 -1 x12 -1 x17 >= -1 ;
-1 x150 +1 x11 >= 0 ;
-1 x150 +1 x18 >= 0 ;
+1 x150 -1 x11 -1 x18 >= -1 ;
-1 x139 +1 x10 >= 0 ;
-1 x139 +1 x19 >= 0 ;
+1 x139 -1 x10 -1 x19 >= -1 ;
-1 x128 +1 x9 >= 0 ;
-1 x128 +1 x20 >= 0 ;
+1 x128 -1 x9 -1 x20 >= -1 ;
-1 x117 +1 x8 >= 0 ;
-1 x117 +1 x21 >= 0 ;
+1 x117 -1 x8 -1 x21 >= -1 ;
-1 x106 +1 x7 >= 0 ;
-1 x106 +1 x22 >= 0 ;
+1 x106 -1 x7 -1 x22 >= -1 ;
-1 x95 +1 x6 >= 0 ;
-1 x95 +1 x23 >= 0 ;
+1 x95 -1 x6 -1 x23 >= -1 ;
-1 x84 +1 x5 >= 0 ;
-1 x84 +1 x24 >= 0 ;
+1 x84 -1 x5 -1 x24 >= -1 ;
+2 x786 +1 x930 -1 x161 -1 x774 -1 x785 = 0 ;
+2 x775 +1 x919 -1 x150 -1 x763 -1 x930 = 0 ;
+2 x764 +1 x908 -1 x139 -1 x752 -1 x919 = 0 ;
+2 x753 +1 x897 -1 x128 -1 x741 -1 x908 = 0 ;
+2 x742 +1 x886 -1 x117 -1 x730 -1 x897 = 0 ;
+2 x731 +1 x875 -1 x106 -1 x719 -1 x886 = 0 ;
+2 x720 +1 x864 -1 x95 -1 x708 -1 x875 = 0 ;
+2 x709 +1 x853 -1 x84 -1 x697 -1 x864 = 0 ;
+1 x853 -1 x1029 = 0 ;
+1 x953 = 0 ;
-1 x284 +1 x5 >= 0 ;
-1 x284 +1 x24 >= 0 ;
+1 x284 -1 x5 -1 x24 >= -1 ;
-1 x283 +1 x6 >= 0 ;
-1 x283 +1 x23 >= 0 ;
+1 x283 -1 x6 -1 x23 >= -1 ;
-1 x282 +1 x7 >= 0 ;
-1 x282 +1 x22 >= 0 ;
+1 x282 -1 x7 -1 x22 >= -1 ;
-1 x281 +1 x8 >= 0 ;
-1 x281 +1 x21 >= 0 ;
+1 x281 -1 x8 -1 x21 >= -1 ;
-1 x280 +1 x9 >= 0 ;
-1 x280 +1 x20 >= 0 ;
+1 x280 -1 x9 -1 x20 >= -1 ;
-1 x279 +1 x10 >= 0 ;
-1 x279 +1 x19 >= 0 ;
+1 x279 -1 x10 -1 x19 >= -1 ;
-1 x278 +1 x11 >= 0 ;
-1 x278 +1 x18 >= 0 ;
+1 x278 -1 x11 -1 x18 >= -1 ;
-1 x277 +1 x12 >= 0 ;
-1 x277 +1 x17 >= 0 ;
+1 x277 -1 x12 -1 x17 >= -1 ;
+2 x342 +1 x343 -1 x279 -1 x277 -1 x278 = 0 ;
+2 x380 +1 x381 -1 x282 -1 x280 -1 x281 = 0 ;
+2 x406 +1 x407 -1 x284 -1 x283 = 0 ;
+2 x445 +1 x446 -1 x381 -1 x343 -1 x340 = 0 ;
+2 x480 +1 x481 -1 x404 -1 x378 -1 x407 = 0 ;
+2 x522 +1 x523 -1 x481 -1 x446 -1 x443 = 0 ;
+1 x478 -1 x553 = 0 ;
+2 x582 +1 x583 -1 x553 -1 x523 -1 x520 = 0 ;
+1 x551 -1 x605 = 0 ;
+2 x631 +1 x632 -1 x605 -1 x583 -1 x580 = 0 ;
-1 x162 +1 x12 >= 0 ;
-1 x162 +1 x18 >= 0 ;
+1 x162 -1 x12 -1 x18 >= -1 ;
-1 x151 +1 x11 >= 0 ;
-1 x151 +1 x19 >= 0 ;
+1 x151 -1 x11 -1 x19 >= -1 ;
-1 x140 +1 x10 >= 0 ;
-1 x140 +1 x20 >= 0 ;
+1 x140 -1 x10 -1 x20 >= -1 ;
-1 x129 +1 x9 >= 0 ;
-1 x129 +1 x21 >= 0 ;
+1 x129 -1 x9 -1 x21 >= -1 ;
-1 x118 +1 x8 >= 0 ;
-1 x118 +1 x22 >= 0 ;
+1 x118 -1 x8 -1 x22 >= -1 ;
-1 x107 +1 x7 >= 0 ;
-1 x107 +1 x23 >= 0 ;
+1 x107 -1 x7 -1 x23 >= -1 ;
-1 x96 +1 x6 >= 0 ;
-1 x96 +1 x24 >= 0 ;
+1 x96 -1 x6 -1 x24 >= -1 ;
+2 x787 +1 x931 -1 x162 -1 x775 -1 x786 = 0 ;
+2 x776 +1 x920 -1 x151 -1 x764 -1 x931 = 0 ;
+2 x765 +1 x909 -1 x140 -1 x753 -1 x920 = 0 ;
+2 x754 +1 x898 -1 x129 -1 x742 -1 x909 = 0 ;
+2 x743 +1 x887 -1 x118 -1 x731 -1 x898 = 0 ;
+2 x732 +1 x876 -1 x107 -1 x720 -1 x887 = 0 ;
+2 x721 +1 x865 -1 x96 -1 x709 -1 x876 = 0 ;
+1 x865 -1 x1030 = 0 ;
+1 x954 = 0 ;
-1 x291 +1 x6 >= 0 ;
-1 x291 +1 x24 >= 0 ;
+1 x291 -1 x6 -1 x24 >= -1 ;
-1 x290 +1 x7 >= 0 ;
-1 x290 +1 x23 >= 0 ;
+1 x290 -1 x7 -1 x23 >= -1 ;
-1 x289 +1 x8 >= 0 ;
-1 x289 +1 x22 >= 0 ;
+1 x289 -1 x8 -1 x22 >= -1 ;
-1 x288 +1 x9 >= 0 ;
-1 x288 +1 x21 >= 0 ;
+1 x288 -1 x9 -1 x21 >= -1 ;
-1 x287 +1 x10 >= 0 ;
-1 x287 +1 x20 >= 0 ;
+1 x287 -1 x10 -1 x20 >= -1 ;
-1 x286 +1 x11 >= 0 ;
-1 x286 +1 x19 >= 0 ;
+1 x286 -1 x11 -1 x19 >= -1 ;
-1 x285 +1 x12 >= 0 ;
-1 x285 +1 x18 >= 0 ;
+1 x285 -1 x12 -1 x18 >= -1 ;
+2 x344 +1 x345 -1 x287 -1 x285 -1 x286 = 0 ;
+2 x382 +1 x383 -1 x290 -1 x288 -1 x289 = 0 ;
+1 x291 -1 x408 = 0 ;
+2 x447 +1 x448 -1 x383 -1 x345 -1 x342 = 0 ;
+2 x482 +1 x483 -1 x406 -1 x380 -1 x408 = 0 ;
+2 x524 +1 x525 -1 x483 -1 x448 -1 x445 = 0 ;
+1 x480 -1 x554 = 0 ;
+2 x584 +1 x585 -1 x554 -1 x525 -1 x522 = 0 ;
+2 x633 +1 x634 -1 x582 -1 x585 = 0 ;
-1 x163 +1 x12 >= 0 ;
-1 x163 +1 x19 >= 0 ;
+1 x163 -1 x12 -1 x19 >= -1 ;
-1 x152 +1 x11 >= 0 ;
-1 x152 +1 x20 >= 0 ;
+1 x152 -1 x11 -1 x20 >= -1 ;
-1 x141 +1 x10 >= 0 ;
-1 x141 +1 x21 >= 0 ;
+1 x141 -1 x10 -1 x21 >= -1 ;
-1 x130 +1 x9 >= 0 ;
-1 x130 +1 x22 >= 0 ;
+1 x130 -1 x9 -1 x22 >= -1 ;
-1 x119 +1 x8 >= 0 ;
-1 x119 +1 x23 >= 0 ;
+1 x119 -1 x8 -1 x23 >= -1 ;
-1 x108 +1 x7 >= 0 ;
-1 x108 +1 x24 >= 0 ;
+1 x108 -1 x7 -1 x24 >= -1 ;
+2 x788 +1 x932 -1 x163 -1 x776 -1 x787 = 0 ;
+2 x777 +1 x921 -1 x152 -1 x765 -1 x932 = 0 ;
+2 x766 +1 x910 -1 x141 -1 x754 -1 x921 = 0 ;
+2 x755 +1 x899 -1 x130 -1 x743 -1 x910 = 0 ;
+2 x744 +1 x888 -1 x119 -1 x732 -1 x899 = 0 ;
+2 x733 +1 x877 -1 x108 -1 x721 -1 x888 = 0 ;
+1 x877 -1 x1031 = 0 ;
+1 x955 = 0 ;
-1 x297 +1 x7 >= 0 ;
-1 x297 +1 x24 >= 0 ;
+1 x297 -1 x7 -1 x24 >= -1 ;
-1 x296 +1 x8 >= 0 ;
-1 x296 +1 x23 >= 0 ;
+1 x296 -1 x8 -1 x23 >= -1 ;
-1 x295 +1 x9 >= 0 ;
-1 x295 +1 x22 >= 0 ;
+1 x295 -1 x9 -1 x22 >= -1 ;
-1 x294 +1 x10 >= 0 ;
-1 x294 +1 x21 >= 0 ;
+1 x294 -1 x10 -1 x21 >= -1 ;
-1 x293 +1 x11 >= 0 ;
-1 x293 +1 x20 >= 0 ;
+1 x293 -1 x11 -1 x20 >= -1 ;
-1 x292 +1 x12 >= 0 ;
-1 x292 +1 x19 >= 0 ;
+1 x292 -1 x12 -1 x19 >= -1 ;
+2 x346 +1 x347 -1 x294 -1 x292 -1 x293 = 0 ;
+2 x384 +1 x385 -1 x297 -1 x295 -1 x296 = 0 ;
+2 x449 +1 x450 -1 x385 -1 x347 -1 x344 = 0 ;
+1 x382 -1 x484 = 0 ;
+2 x526 +1 x527 -1 x484 -1 x450 -1 x447 = 0 ;
+1 x482 -1 x555 = 0 ;
+2 x586 +1 x587 -1 x555 -1 x527 -1 x524 = 0 ;
+2 x635 +1 x636 -1 x584 -1 x587 = 0 ;
-1 x164 +1 x12 >= 0 ;
-1 x164 +1 x20 >= 0 ;
+1 x164 -1 x12 -1 x20 >= -1 ;
-1 x153 +1 x11 >= 0 ;
-1 x153 +1 x21 >= 0 ;
+1 x153 -1 x11 -1 x21 >= -1 ;
-1 x142 +1 x10 >= 0 ;
-1 x142 +1 x22 >= 0 ;
+1 x142 -1 x10 -1 x22 >= -1 ;
-1 x131 +1 x9 >= 0 ;
-1 x131 +1 x23 >= 0 ;
+1 x131 -1 x9 -1 x23 >= -1 ;
-1 x120 +1 x8 >= 0 ;
-1 x120 +1 x24 >= 0 ;
+1 x120 -1 x8 -1 x24 >= -1 ;
+2 x789 +1 x933 -1 x164 -1 x777 -1 x788 = 0 ;
+2 x778 +1 x922 -1 x153 -1 x766 -1 x933 = 0 ;
+2 x767 +1 x911 -1 x142 -1 x755 -1 x922 = 0 ;
+2 x756 +1 x900 -1 x131 -1 x744 -1 x911 = 0 ;
+2 x745 +1 x889 -1 x120 -1 x733 -1 x900 = 0 ;
+1 x889 -1 x1032 = 0 ;
+1 x956 = 0 ;
-1 x302 +1 x8 >= 0 ;
-1 x302 +1 x24 >= 0 ;
+1 x302 -1 x8 -1 x24 >= -1 ;
-1 x301 +1 x9 >= 0 ;
-1 x301 +1 x23 >= 0 ;
+1 x301 -1 x9 -1 x23 >= -1 ;
-1 x300 +1 x10 >= 0 ;
-1 x300 +1 x22 >= 0 ;
+1 x300 -1 x10 -1 x22 >= -1 ;
-1 x299 +1 x11 >= 0 ;
-1 x299 +1 x21 >= 0 ;
+1 x299 -1 x11 -1 x21 >= -1 ;
-1 x298 +1 x12 >= 0 ;
-1 x298 +1 x20 >= 0 ;
+1 x298 -1 x12 -1 x20 >= -1 ;
+2 x348 +1 x349 -1 x300 -1 x298 -1 x299 = 0 ;
+2 x386 +1 x387 -1 x302 -1 x301 = 0 ;
+2 x451 +1 x452 -1 x387 -1 x349 -1 x346 = 0 ;
+1 x384 -1 x485 = 0 ;
+2 x528 +1 x529 -1 x485 -1 x452 -1 x449 = 0 ;
+2 x588 +1 x589 -1 x526 -1 x529 = 0 ;
+2 x637 +1 x638 -1 x586 -1 x589 = 0 ;
-1 x165 +1 x12 >= 0 ;
-1 x165 +1 x21 >= 0 ;
+1 x165 -1 x12 -1 x21 >= -1 ;
-1 x154 +1 x11 >= 0 ;
-1 x154 +1 x22 >= 0 ;
+1 x154 -1 x11 -1 x22 >= -1 ;
-1 x143 +1 x10 >= 0 ;
-1 x143 +1 x23 >= 0 ;
+1 x143 -1 x10 -1 x23 >= -1 ;
-1 x132 +1 x9 >= 0 ;
-1 x132 +1 x24 >= 0 ;
+1 x132 -1 x9 -1 x24 >= -1 ;
+2 x790 +1 x934 -1 x165 -1 x778 -1 x789 = 0 ;
+2 x779 +1 x923 -1 x154 -1 x767 -1 x934 = 0 ;
+2 x768 +1 x912 -1 x143 -1 x756 -1 x923 = 0 ;
+2 x757 +1 x901 -1 x132 -1 x745 -1 x912 = 0 ;
+1 x901 -1 x1033 = 0 ;
+1 x957 = 0 ;
-1 x306 +1 x9 >= 0 ;
-1 x306 +1 x24 >= 0 ;
+1 x306 -1 x9 -1 x24 >= -1 ;
-1 x305 +1 x10 >= 0 ;
-1 x305 +1 x23 >= 0 ;
+1 x305 -1 x10 -1 x23 >= -1 ;
-1 x304 +1 x11 >= 0 ;
-1 x304 +1 x22 >= 0 ;
+1 x304 -1 x11 -1 x22 >= -1 ;
-1 x303 +1 x12 >= 0 ;
-1 x303 +1 x21 >= 0 ;
+1 x303 -1 x12 -1 x21 >= -1 ;
+2 x350 +1 x351 -1 x305 -1 x303 -1 x304 = 0 ;
+1 x306 -1 x388 = 0 ;
+2 x453 +1 x454 -1 x388 -1 x351 -1 x348 = 0 ;
+1 x386 -1 x486 = 0 ;
+2 x530 +1 x531 -1 x486 -1 x454 -1 x451 = 0 ;
+2 x590 +1 x591 -1 x528 -1 x531 = 0 ;
+2 x639 +1 x640 -1 x588 -1 x591 = 0 ;
-1 x166 +1 x12 >= 0 ;
-1 x166 +1 x22 >= 0 ;
+1 x166 -1 x12 -1 x22 >= -1 ;
-1 x155 +1 x11 >= 0 ;
-1 x155 +1 x23 >= 0 ;
+1 x155 -1 x11 -1 x23 >= -1 ;
-1 x144 +1 x10 >= 0 ;
-1 x144 +1 x24 >= 0 ;
+1 x144 -1 x10 -1 x24 >= -1 ;
+2 x791 +1 x935 -1 x166 -1 x779 -1 x790 = 0 ;
+2 x780 +1 x924 -1 x155 -1 x768 -1 x935 = 0 ;
+2 x769 +1 x913 -1 x144 -1 x757 -1 x924 = 0 ;
+1 x913 -1 x1034 = 0 ;
+1 x958 = 0 ;
-1 x309 +1 x10 >= 0 ;
-1 x309 +1 x24 >= 0 ;
+1 x309 -1 x10 -1 x24 >= -1 ;
-1 x308 +1 x11 >= 0 ;
-1 x308 +1 x23 >= 0 ;
+1 x308 -1 x11 -1 x23 >= -1 ;
-1 x307 +1 x12 >= 0 ;
-1 x307 +1 x22 >= 0 ;
+1 x307 -1 x12 -1 x22 >= -1 ;
+2 x352 +1 x353 -1 x309 -1 x307 -1 x308 = 0 ;
+2 x455 +1 x456 -1 x350 -1 x353 = 0 ;
+2 x532 +1 x533 -1 x453 -1 x456 = 0 ;
+2 x592 +1 x593 -1 x530 -1 x533 = 0 ;
+2 x641 +1 x642 -1 x590 -1 x593 = 0 ;
-1 x167 +1 x12 >= 0 ;
-1 x167 +1 x23 >= 0 ;
+1 x167 -1 x12 -1 x23 >= -1 ;
-1 x156 +1 x11 >= 0 ;
-1 x156 +1 x24 >= 0 ;
+1 x156 -1 x11 -1 x24 >= -1 ;
+2 x792 +1 x936 -1 x167 -1 x780 -1 x791 = 0 ;
+2 x781 +1 x925 -1 x156 -1 x769 -1 x936 = 0 ;
+1 x925 -1 x1035 = 0 ;
+1 x959 = 0 ;
-1 x311 +1 x11 >= 0 ;
-1 x311 +1 x24 >= 0 ;
+1 x311 -1 x11 -1 x24 >= -1 ;
-1 x310 +1 x12 >= 0 ;
-1 x310 +1 x23 >= 0 ;
+1 x310 -1 x12 -1 x23 >= -1 ;
+2 x354 +1 x355 -1 x311 -1 x310 = 0 ;
+2 x457 +1 x458 -1 x352 -1 x355 = 0 ;
+2 x534 +1 x535 -1 x455 -1 x458 = 0 ;
+2 x594 +1 x595 -1 x532 -1 x535 = 0 ;
+2 x643 +1 x644 -1 x592 -1 x595 = 0 ;
-1 x168 +1 x12 >= 0 ;
-1 x168 +1 x24 >= 0 ;
+1 x168 -1 x12 -1 x24 >= -1 ;
+2 x793 +1 x937 -1 x168 -1 x781 -1 x792 = 0 ;
+1 x937 -1 x1036 = 0 ;
+1 x960 = 0 ;
-1 x312 +1 x12 >= 0 ;
-1 x312 +1 x24 >= 0 ;
+1 x312 -1 x12 -1 x24 >= -1 ;
+1 x312 -1 x356 = 0 ;
+2 x459 +1 x460 -1 x354 -1 x356 = 0 ;
+2 x536 +1 x537 -1 x457 -1 x460 = 0 ;
+2 x596 +1 x597 -1 x534 -1 x537 = 0 ;
+2 x645 +1 x646 -1 x594 -1 x597 = 0 ;
+1 x793 -1 x1037 = 0 ;
+1 x961 = 0 ;
+1 x459 -1 x538 = 0 ;
+2 x598 +1 x599 -1 x536 -1 x538 = 0 ;
+2 x647 +1 x648 -1 x596 -1 x599 = 0 ;
+1 x598 -1 x649 = 0 ;
